c
c CNF Sudoku Translation
c
p cnf 245 1801
1 0
2 7 12 17 22 27 0
-2 -7 0
-2 -12 0
-2 -17 0
-2 -22 0
-2 -27 0
-7 -12 0
-7 -17 0
-7 -22 0
-7 -27 0
-12 -17 0
-12 -22 0
-12 -27 0
-17 -22 0
-17 -27 0
-22 -27 0
33 62 127 175 198 0
-33 -62 0
-33 -127 0
-33 -175 0
-33 -198 0
-62 -127 0
-62 -175 0
-62 -198 0
-127 -175 0
-127 -198 0
-175 -198 0
2 3 4 5 6 0
-2 -3 0
-2 -4 0
-2 -5 0
-2 -6 0
-3 -4 0
-3 -5 0
-3 -6 0
-4 -5 0
-4 -6 0
-5 -6 0
3 8 13 23 28 0
-3 -8 0
-3 -13 0
-3 -23 0
-3 -28 0
-8 -13 0
-8 -23 0
-8 -28 0
-13 -23 0
-13 -28 0
-23 -28 0
99 0
7 8 9 10 11 0
-7 -8 0
-7 -9 0
-7 -10 0
-7 -11 0
-8 -9 0
-8 -10 0
-8 -11 0
-9 -10 0
-9 -11 0
-10 -11 0
4 9 18 29 0
-4 -9 0
-4 -18 0
-4 -29 0
-9 -18 0
-9 -29 0
-18 -29 0
34 63 176 199 0
-34 -63 0
-34 -176 0
-34 -199 0
-63 -176 0
-63 -199 0
-176 -199 0
12 13 14 15 16 0
-12 -13 0
-12 -14 0
-12 -15 0
-12 -16 0
-13 -14 0
-13 -15 0
-13 -16 0
-14 -15 0
-14 -16 0
-15 -16 0
5 14 19 30 0
-5 -14 0
-5 -19 0
-5 -30 0
-14 -19 0
-14 -30 0
-19 -30 0
35 64 128 152 0
-35 -64 0
-35 -128 0
-35 -152 0
-64 -128 0
-64 -152 0
-128 -152 0
17 18 19 20 0
-17 -18 0
-17 -19 0
-17 -20 0
-18 -19 0
-18 -20 0
-19 -20 0
10 15 20 24 31 0
-10 -15 0
-10 -20 0
-10 -24 0
-10 -31 0
-15 -20 0
-15 -24 0
-15 -31 0
-20 -24 0
-20 -31 0
-24 -31 0
36 65 129 153 0
-36 -65 0
-36 -129 0
-36 -153 0
-65 -129 0
-65 -153 0
-129 -153 0
21 0
26 0
177 200 0
-177 -200 0
22 23 24 25 0
-22 -23 0
-22 -24 0
-22 -25 0
-23 -24 0
-23 -25 0
-24 -25 0
21 0
222 0
26 0
6 11 16 25 32 0
-6 -11 0
-6 -16 0
-6 -25 0
-6 -32 0
-11 -16 0
-11 -25 0
-11 -32 0
-16 -25 0
-16 -32 0
-25 -32 0
37 66 130 154 178 0
-37 -66 0
-37 -130 0
-37 -154 0
-37 -178 0
-66 -130 0
-66 -154 0
-66 -178 0
-130 -154 0
-130 -178 0
-154 -178 0
27 28 29 30 31 32 0
-27 -28 0
-27 -29 0
-27 -30 0
-27 -31 0
-27 -32 0
-28 -29 0
-28 -30 0
-28 -31 0
-28 -32 0
-29 -30 0
-29 -31 0
-29 -32 0
-30 -31 0
-30 -32 0
-31 -32 0
1 0
1 0
33 34 35 36 37 0
-33 -34 0
-33 -35 0
-33 -36 0
-33 -37 0
-34 -35 0
-34 -36 0
-34 -37 0
-35 -36 0
-35 -37 0
-36 -37 0
33 39 45 49 53 0
-33 -39 0
-33 -45 0
-33 -49 0
-33 -53 0
-39 -45 0
-39 -49 0
-39 -53 0
-45 -49 0
-45 -53 0
-49 -53 0
2 67 100 201 223 0
-2 -67 0
-2 -100 0
-2 -201 0
-2 -223 0
-67 -100 0
-67 -201 0
-67 -223 0
-100 -201 0
-100 -223 0
-201 -223 0
38 0
40 54 57 0
-40 -54 0
-40 -57 0
-54 -57 0
3 68 202 224 0
-3 -68 0
-3 -202 0
-3 -224 0
-68 -202 0
-68 -224 0
-202 -224 0
39 40 41 42 43 0
-39 -40 0
-39 -41 0
-39 -42 0
-39 -43 0
-40 -41 0
-40 -42 0
-40 -43 0
-41 -42 0
-41 -43 0
-42 -43 0
34 41 46 50 58 0
-34 -41 0
-34 -46 0
-34 -50 0
-34 -58 0
-41 -46 0
-41 -50 0
-41 -58 0
-46 -50 0
-46 -58 0
-50 -58 0
4 69 101 203 225 0
-4 -69 0
-4 -101 0
-4 -203 0
-4 -225 0
-69 -101 0
-69 -203 0
-69 -225 0
-101 -203 0
-101 -225 0
-203 -225 0
44 0
35 47 51 59 0
-35 -47 0
-35 -51 0
-35 -59 0
-47 -51 0
-47 -59 0
-51 -59 0
5 70 102 155 0
-5 -70 0
-5 -102 0
-5 -155 0
-70 -102 0
-70 -155 0
-102 -155 0
45 46 47 48 0
-45 -46 0
-45 -47 0
-45 -48 0
-46 -47 0
-46 -48 0
-47 -48 0
36 42 48 55 60 0
-36 -42 0
-36 -48 0
-36 -55 0
-36 -60 0
-42 -48 0
-42 -55 0
-42 -60 0
-48 -55 0
-48 -60 0
-55 -60 0
179 0
49 50 51 52 0
-49 -50 0
-49 -51 0
-49 -52 0
-50 -51 0
-50 -52 0
-51 -52 0
38 0
38 0
53 54 55 56 0
-53 -54 0
-53 -55 0
-53 -56 0
-54 -55 0
-54 -56 0
-55 -56 0
61 0
131 0
57 58 59 60 0
-57 -58 0
-57 -59 0
-57 -60 0
-58 -59 0
-58 -60 0
-59 -60 0
37 43 52 56 0
-37 -43 0
-37 -52 0
-37 -56 0
-43 -52 0
-43 -56 0
-52 -56 0
6 71 156 226 0
-6 -71 0
-6 -156 0
-6 -226 0
-71 -156 0
-71 -226 0
-156 -226 0
61 0
44 0
103 157 204 0
-103 -157 0
-103 -204 0
-157 -204 0
62 63 64 65 66 0
-62 -63 0
-62 -64 0
-62 -65 0
-62 -66 0
-63 -64 0
-63 -65 0
-63 -66 0
-64 -65 0
-64 -66 0
-65 -66 0
62 67 72 78 84 93 0
-62 -67 0
-62 -72 0
-62 -78 0
-62 -84 0
-62 -93 0
-67 -72 0
-67 -78 0
-67 -84 0
-67 -93 0
-72 -78 0
-72 -84 0
-72 -93 0
-78 -84 0
-78 -93 0
-84 -93 0
7 39 72 104 132 180 227 0
-7 -39 0
-7 -72 0
-7 -104 0
-7 -132 0
-7 -180 0
-7 -227 0
-39 -72 0
-39 -104 0
-39 -132 0
-39 -180 0
-39 -227 0
-72 -104 0
-72 -132 0
-72 -180 0
-72 -227 0
-104 -132 0
-104 -180 0
-104 -227 0
-132 -180 0
-132 -227 0
-180 -227 0
67 68 69 70 71 0
-67 -68 0
-67 -69 0
-67 -70 0
-67 -71 0
-68 -69 0
-68 -70 0
-68 -71 0
-69 -70 0
-69 -71 0
-70 -71 0
68 73 79 89 94 0
-68 -73 0
-68 -79 0
-68 -89 0
-68 -94 0
-73 -79 0
-73 -89 0
-73 -94 0
-79 -89 0
-79 -94 0
-89 -94 0
8 40 73 228 0
-8 -40 0
-8 -73 0
-8 -228 0
-40 -73 0
-40 -228 0
-73 -228 0
72 73 74 75 76 77 0
-72 -73 0
-72 -74 0
-72 -75 0
-72 -76 0
-72 -77 0
-73 -74 0
-73 -75 0
-73 -76 0
-73 -77 0
-74 -75 0
-74 -76 0
-74 -77 0
-75 -76 0
-75 -77 0
-76 -77 0
63 69 74 85 90 95 0
-63 -69 0
-63 -74 0
-63 -85 0
-63 -90 0
-63 -95 0
-69 -74 0
-69 -85 0
-69 -90 0
-69 -95 0
-74 -85 0
-74 -90 0
-74 -95 0
-85 -90 0
-85 -95 0
-90 -95 0
9 41 74 105 181 229 0
-9 -41 0
-9 -74 0
-9 -105 0
-9 -181 0
-9 -229 0
-41 -74 0
-41 -105 0
-41 -181 0
-41 -229 0
-74 -105 0
-74 -181 0
-74 -229 0
-105 -181 0
-105 -229 0
-181 -229 0
78 79 80 81 82 0
-78 -79 0
-78 -80 0
-78 -81 0
-78 -82 0
-79 -80 0
-79 -81 0
-79 -82 0
-80 -81 0
-80 -82 0
-81 -82 0
64 70 80 86 91 96 0
-64 -70 0
-64 -80 0
-64 -86 0
-64 -91 0
-64 -96 0
-70 -80 0
-70 -86 0
-70 -91 0
-70 -96 0
-80 -86 0
-80 -91 0
-80 -96 0
-86 -91 0
-86 -96 0
-91 -96 0
205 0
83 0
65 75 81 92 97 0
-65 -75 0
-65 -81 0
-65 -92 0
-65 -97 0
-75 -81 0
-75 -92 0
-75 -97 0
-81 -92 0
-81 -97 0
-92 -97 0
10 42 75 106 133 0
-10 -42 0
-10 -75 0
-10 -106 0
-10 -133 0
-42 -75 0
-42 -106 0
-42 -133 0
-75 -106 0
-75 -133 0
-106 -133 0
84 85 86 87 0
-84 -85 0
-84 -86 0
-84 -87 0
-85 -86 0
-85 -87 0
-86 -87 0
83 0
158 0
88 0
76 0
76 0
89 90 91 92 0
-89 -90 0
-89 -91 0
-89 -92 0
-90 -91 0
-90 -92 0
-91 -92 0
66 71 77 82 87 98 0
-66 -71 0
-66 -77 0
-66 -82 0
-66 -87 0
-66 -98 0
-71 -77 0
-71 -82 0
-71 -87 0
-71 -98 0
-77 -82 0
-77 -87 0
-77 -98 0
-82 -87 0
-82 -98 0
-87 -98 0
11 43 77 134 182 230 0
-11 -43 0
-11 -77 0
-11 -134 0
-11 -182 0
-11 -230 0
-43 -77 0
-43 -134 0
-43 -182 0
-43 -230 0
-77 -134 0
-77 -182 0
-77 -230 0
-134 -182 0
-134 -230 0
-182 -230 0
93 94 95 96 97 98 0
-93 -94 0
-93 -95 0
-93 -96 0
-93 -97 0
-93 -98 0
-94 -95 0
-94 -96 0
-94 -97 0
-94 -98 0
-95 -96 0
-95 -97 0
-95 -98 0
-96 -97 0
-96 -98 0
-97 -98 0
88 0
107 135 183 0
-107 -135 0
-107 -183 0
-135 -183 0
99 0
100 104 108 113 0
-100 -104 0
-100 -108 0
-100 -113 0
-104 -108 0
-104 -113 0
-108 -113 0
12 78 108 136 184 206 0
-12 -78 0
-12 -108 0
-12 -136 0
-12 -184 0
-12 -206 0
-78 -108 0
-78 -136 0
-78 -184 0
-78 -206 0
-108 -136 0
-108 -184 0
-108 -206 0
-136 -184 0
-136 -206 0
-184 -206 0
100 101 102 103 0
-100 -101 0
-100 -102 0
-100 -103 0
-101 -102 0
-101 -103 0
-102 -103 0
99 0
13 79 0
-13 -79 0
104 105 106 107 0
-104 -105 0
-104 -106 0
-104 -107 0
-105 -106 0
-105 -107 0
-106 -107 0
101 105 0
-101 -105 0
159 0
108 109 110 111 0
-108 -109 0
-108 -110 0
-108 -111 0
-109 -110 0
-109 -111 0
-110 -111 0
102 109 114 120 124 0
-102 -109 0
-102 -114 0
-102 -120 0
-102 -124 0
-109 -114 0
-109 -120 0
-109 -124 0
-114 -120 0
-114 -124 0
-120 -124 0
14 80 109 137 0
-14 -80 0
-14 -109 0
-14 -137 0
-80 -109 0
-80 -137 0
-109 -137 0
112 0
106 110 117 121 125 0
-106 -110 0
-106 -117 0
-106 -121 0
-106 -125 0
-110 -117 0
-110 -121 0
-110 -125 0
-117 -121 0
-117 -125 0
-121 -125 0
15 81 110 138 0
-15 -81 0
-15 -110 0
-15 -138 0
-81 -110 0
-81 -138 0
-110 -138 0
113 114 115 116 0
-113 -114 0
-113 -115 0
-113 -116 0
-114 -115 0
-114 -116 0
-115 -116 0
115 118 126 0
-115 -118 0
-115 -126 0
-118 -126 0
231 0
117 118 119 0
-117 -118 0
-117 -119 0
-118 -119 0
111 119 122 0
-111 -119 0
-111 -122 0
-119 -122 0
111 185 207 0
-111 -185 0
-111 -207 0
-185 -207 0
120 121 122 123 0
-120 -121 0
-120 -122 0
-120 -123 0
-121 -122 0
-121 -123 0
-122 -123 0
112 0
16 82 186 0
-16 -82 0
-16 -186 0
-82 -186 0
124 125 126 0
-124 -125 0
-124 -126 0
-125 -126 0
103 107 116 123 0
-103 -107 0
-103 -116 0
-103 -123 0
-107 -116 0
-107 -123 0
-116 -123 0
44 0
127 128 129 130 0
-127 -128 0
-127 -129 0
-127 -130 0
-128 -129 0
-128 -130 0
-129 -130 0
127 132 136 139 0
-127 -132 0
-127 -136 0
-127 -139 0
-132 -136 0
-132 -139 0
-136 -139 0
17 45 139 208 232 0
-17 -45 0
-17 -139 0
-17 -208 0
-17 -232 0
-45 -139 0
-45 -208 0
-45 -232 0
-139 -208 0
-139 -232 0
-208 -232 0
131 0
143 0
187 0
132 133 134 135 0
-132 -133 0
-132 -134 0
-132 -135 0
-133 -134 0
-133 -135 0
-134 -135 0
144 0
18 46 209 233 0
-18 -46 0
-18 -209 0
-18 -233 0
-46 -209 0
-46 -233 0
-209 -233 0
136 137 138 0
-136 -137 0
-136 -138 0
-137 -138 0
128 137 140 145 148 0
-128 -137 0
-128 -140 0
-128 -145 0
-128 -148 0
-137 -140 0
-137 -145 0
-137 -148 0
-140 -145 0
-140 -148 0
-145 -148 0
19 47 140 160 234 0
-19 -47 0
-19 -140 0
-19 -160 0
-19 -234 0
-47 -140 0
-47 -160 0
-47 -234 0
-140 -160 0
-140 -234 0
-160 -234 0
139 140 141 142 0
-139 -140 0
-139 -141 0
-139 -142 0
-140 -141 0
-140 -142 0
-141 -142 0
129 133 138 141 146 149 0
-129 -133 0
-129 -138 0
-129 -141 0
-129 -146 0
-129 -149 0
-133 -138 0
-133 -141 0
-133 -146 0
-133 -149 0
-138 -141 0
-138 -146 0
-138 -149 0
-141 -146 0
-141 -149 0
-146 -149 0
20 48 141 161 0
-20 -48 0
-20 -141 0
-20 -161 0
-48 -141 0
-48 -161 0
-141 -161 0
143 0
150 0
83 0
144 0
131 0
162 210 0
-162 -210 0
145 146 147 0
-145 -146 0
-145 -147 0
-146 -147 0
130 134 151 0
-130 -134 0
-130 -151 0
-134 -151 0
112 0
148 149 150 151 0
-148 -149 0
-148 -150 0
-148 -151 0
-149 -150 0
-149 -151 0
-150 -151 0
135 142 147 0
-135 -142 0
-135 -147 0
-142 -147 0
142 163 211 0
-142 -163 0
-142 -211 0
-163 -211 0
152 153 154 0
-152 -153 0
-152 -154 0
-153 -154 0
170 0
49 84 113 188 235 0
-49 -84 0
-49 -113 0
-49 -188 0
-49 -235 0
-84 -113 0
-84 -188 0
-84 -235 0
-113 -188 0
-113 -235 0
-188 -235 0
155 156 157 0
-155 -156 0
-155 -157 0
-156 -157 0
166 171 0
-166 -171 0
143 0
158 0
159 0
50 85 189 236 0
-50 -85 0
-50 -189 0
-50 -236 0
-85 -189 0
-85 -236 0
-189 -236 0
159 0
152 155 160 164 172 0
-152 -155 0
-152 -160 0
-152 -164 0
-152 -172 0
-155 -160 0
-155 -164 0
-155 -172 0
-160 -164 0
-160 -172 0
-164 -172 0
51 86 114 164 237 0
-51 -86 0
-51 -114 0
-51 -164 0
-51 -237 0
-86 -114 0
-86 -164 0
-86 -237 0
-114 -164 0
-114 -237 0
-164 -237 0
160 161 162 163 0
-160 -161 0
-160 -162 0
-160 -163 0
-161 -162 0
-161 -163 0
-162 -163 0
153 161 167 173 0
-153 -161 0
-153 -167 0
-153 -173 0
-161 -167 0
-161 -173 0
-167 -173 0
212 0
164 165 0
-164 -165 0
158 0
115 0
166 167 168 169 0
-166 -167 0
-166 -168 0
-166 -169 0
-167 -168 0
-167 -169 0
-168 -169 0
162 168 0
-162 -168 0
21 0
170 0
154 156 169 174 0
-154 -156 0
-154 -169 0
-154 -174 0
-156 -169 0
-156 -174 0
-169 -174 0
52 87 190 238 0
-52 -87 0
-52 -190 0
-52 -238 0
-87 -190 0
-87 -238 0
-190 -238 0
171 172 173 174 0
-171 -172 0
-171 -173 0
-171 -174 0
-172 -173 0
-172 -174 0
-173 -174 0
157 163 165 0
-157 -163 0
-157 -165 0
-163 -165 0
116 165 191 0
-116 -165 0
-116 -191 0
-165 -191 0
175 176 177 178 0
-175 -176 0
-175 -177 0
-175 -178 0
-176 -177 0
-176 -178 0
-177 -178 0
175 180 184 188 195 0
-175 -180 0
-175 -184 0
-175 -188 0
-175 -195 0
-180 -184 0
-180 -188 0
-180 -195 0
-184 -188 0
-184 -195 0
-188 -195 0
22 53 213 239 0
-22 -53 0
-22 -213 0
-22 -239 0
-53 -213 0
-53 -239 0
-213 -239 0
179 0
187 0
23 54 166 214 240 0
-23 -54 0
-23 -166 0
-23 -214 0
-23 -240 0
-54 -166 0
-54 -214 0
-54 -240 0
-166 -214 0
-166 -240 0
-214 -240 0
180 181 182 183 0
-180 -181 0
-180 -182 0
-180 -183 0
-181 -182 0
-181 -183 0
-182 -183 0
176 181 189 193 196 0
-176 -181 0
-176 -189 0
-176 -193 0
-176 -196 0
-181 -189 0
-181 -193 0
-181 -196 0
-189 -193 0
-189 -196 0
-193 -196 0
144 0
184 185 186 0
-184 -185 0
-184 -186 0
-185 -186 0
192 0
192 0
187 0
179 0
24 55 117 167 241 0
-24 -55 0
-24 -117 0
-24 -167 0
-24 -241 0
-55 -117 0
-55 -167 0
-55 -241 0
-117 -167 0
-117 -241 0
-167 -241 0
188 189 190 191 0
-188 -189 0
-188 -190 0
-188 -191 0
-189 -190 0
-189 -191 0
-190 -191 0
177 197 0
-177 -197 0
118 215 0
-118 -215 0
192 0
185 194 0
-185 -194 0
119 168 216 0
-119 -168 0
-119 -216 0
-168 -216 0
193 194 0
-193 -194 0
178 182 186 190 0
-178 -182 0
-178 -186 0
-178 -190 0
-182 -186 0
-182 -190 0
-186 -190 0
25 56 169 0
-25 -56 0
-25 -169 0
-56 -169 0
195 196 197 0
-195 -196 0
-195 -197 0
-196 -197 0
183 191 0
-183 -191 0
88 0
198 199 200 0
-198 -199 0
-198 -200 0
-199 -200 0
198 201 206 208 213 218 0
-198 -201 0
-198 -206 0
-198 -208 0
-198 -213 0
-198 -218 0
-201 -206 0
-201 -208 0
-201 -213 0
-201 -218 0
-206 -208 0
-206 -213 0
-206 -218 0
-208 -213 0
-208 -218 0
-213 -218 0
170 0
201 202 203 204 0
-201 -202 0
-201 -203 0
-201 -204 0
-202 -203 0
-202 -204 0
-203 -204 0
202 214 219 0
-202 -214 0
-202 -219 0
-214 -219 0
57 89 242 0
-57 -89 0
-57 -242 0
-89 -242 0
205 0
199 203 209 220 0
-199 -203 0
-199 -209 0
-199 -220 0
-203 -209 0
-203 -220 0
-209 -220 0
58 90 193 243 0
-58 -90 0
-58 -193 0
-58 -243 0
-90 -193 0
-90 -243 0
-193 -243 0
206 207 0
-206 -207 0
205 0
59 91 120 145 0
-59 -91 0
-59 -120 0
-59 -145 0
-91 -120 0
-91 -145 0
-120 -145 0
208 209 210 211 0
-208 -209 0
-208 -210 0
-208 -211 0
-209 -210 0
-209 -211 0
-210 -211 0
212 0
60 92 121 146 244 0
-60 -92 0
-60 -121 0
-60 -146 0
-60 -244 0
-92 -121 0
-92 -146 0
-92 -244 0
-121 -146 0
-121 -244 0
-146 -244 0
212 0
200 215 221 0
-200 -215 0
-200 -221 0
-215 -221 0
26 0
213 214 215 216 0
-213 -214 0
-213 -215 0
-213 -216 0
-214 -215 0
-214 -216 0
-215 -216 0
207 210 216 0
-207 -210 0
-207 -216 0
-210 -216 0
122 194 0
-122 -194 0
217 0
217 0
217 0
218 219 220 221 0
-218 -219 0
-218 -220 0
-218 -221 0
-219 -220 0
-219 -221 0
-220 -221 0
204 211 0
-204 -211 0
123 147 0
-123 -147 0
222 0
223 227 232 235 239 0
-223 -227 0
-223 -232 0
-223 -235 0
-223 -239 0
-227 -232 0
-227 -235 0
-227 -239 0
-232 -235 0
-232 -239 0
-235 -239 0
27 93 195 218 0
-27 -93 0
-27 -195 0
-27 -218 0
-93 -195 0
-93 -218 0
-195 -218 0
223 224 225 226 0
-223 -224 0
-223 -225 0
-223 -226 0
-224 -225 0
-224 -226 0
-225 -226 0
224 228 240 242 0
-224 -228 0
-224 -240 0
-224 -242 0
-228 -240 0
-228 -242 0
-240 -242 0
28 94 171 219 0
-28 -94 0
-28 -171 0
-28 -219 0
-94 -171 0
-94 -219 0
-171 -219 0
227 228 229 230 0
-227 -228 0
-227 -229 0
-227 -230 0
-228 -229 0
-228 -230 0
-229 -230 0
225 229 233 236 243 0
-225 -229 0
-225 -233 0
-225 -236 0
-225 -243 0
-229 -233 0
-229 -236 0
-229 -243 0
-233 -236 0
-233 -243 0
-236 -243 0
29 95 196 220 0
-29 -95 0
-29 -196 0
-29 -220 0
-95 -196 0
-95 -220 0
-196 -220 0
231 0
234 237 0
-234 -237 0
30 96 124 148 172 0
-30 -96 0
-30 -124 0
-30 -148 0
-30 -172 0
-96 -124 0
-96 -148 0
-96 -172 0
-124 -148 0
-124 -172 0
-148 -172 0
232 233 234 0
-232 -233 0
-232 -234 0
-233 -234 0
241 244 0
-241 -244 0
31 97 125 149 173 0
-31 -97 0
-31 -125 0
-31 -149 0
-31 -173 0
-97 -125 0
-97 -149 0
-97 -173 0
-125 -149 0
-125 -173 0
-149 -173 0
235 236 237 238 0
-235 -236 0
-235 -237 0
-235 -238 0
-236 -237 0
-236 -238 0
-237 -238 0
231 0
126 150 197 221 0
-126 -150 0
-126 -197 0
-126 -221 0
-150 -197 0
-150 -221 0
-197 -221 0
239 240 241 0
-239 -240 0
-239 -241 0
-240 -241 0
222 0
61 0
242 243 244 0
-242 -243 0
-242 -244 0
-243 -244 0
226 230 238 0
-226 -230 0
-226 -238 0
-230 -238 0
32 98 151 174 0
-32 -98 0
-32 -151 0
-32 -174 0
-98 -151 0
-98 -174 0
-151 -174 0
245 0
245 0
245 0
2 7 33 39 62 67 72 0
-2 -7 0
-2 -33 0
-2 -39 0
-2 -62 0
-2 -67 0
-2 -72 0
-7 -33 0
-7 -39 0
-7 -62 0
-7 -67 0
-7 -72 0
-33 -39 0
-33 -62 0
-33 -67 0
-33 -72 0
-39 -62 0
-39 -67 0
-39 -72 0
-62 -67 0
-62 -72 0
-67 -72 0
3 8 40 68 73 0
-3 -8 0
-3 -40 0
-3 -68 0
-3 -73 0
-8 -40 0
-8 -68 0
-8 -73 0
-40 -68 0
-40 -73 0
-68 -73 0
4 9 34 41 63 69 74 0
-4 -9 0
-4 -34 0
-4 -41 0
-4 -63 0
-4 -69 0
-4 -74 0
-9 -34 0
-9 -41 0
-9 -63 0
-9 -69 0
-9 -74 0
-34 -41 0
-34 -63 0
-34 -69 0
-34 -74 0
-41 -63 0
-41 -69 0
-41 -74 0
-63 -69 0
-63 -74 0
-69 -74 0
5 35 64 70 0
-5 -35 0
-5 -64 0
-5 -70 0
-35 -64 0
-35 -70 0
-64 -70 0
10 36 42 65 75 0
-10 -36 0
-10 -42 0
-10 -65 0
-10 -75 0
-36 -42 0
-36 -65 0
-36 -75 0
-42 -65 0
-42 -75 0
-65 -75 0
38 0
76 0
6 11 37 43 66 71 77 0
-6 -11 0
-6 -37 0
-6 -43 0
-6 -66 0
-6 -71 0
-6 -77 0
-11 -37 0
-11 -43 0
-11 -66 0
-11 -71 0
-11 -77 0
-37 -43 0
-37 -66 0
-37 -71 0
-37 -77 0
-43 -66 0
-43 -71 0
-43 -77 0
-66 -71 0
-66 -77 0
-71 -77 0
1 0
12 17 45 49 78 84 0
-12 -17 0
-12 -45 0
-12 -49 0
-12 -78 0
-12 -84 0
-17 -45 0
-17 -49 0
-17 -78 0
-17 -84 0
-45 -49 0
-45 -78 0
-45 -84 0
-49 -78 0
-49 -84 0
-78 -84 0
13 79 0
-13 -79 0
18 46 50 85 0
-18 -46 0
-18 -50 0
-18 -85 0
-46 -50 0
-46 -85 0
-50 -85 0
14 19 47 51 80 86 0
-14 -19 0
-14 -47 0
-14 -51 0
-14 -80 0
-14 -86 0
-19 -47 0
-19 -51 0
-19 -80 0
-19 -86 0
-47 -51 0
-47 -80 0
-47 -86 0
-51 -80 0
-51 -86 0
-80 -86 0
15 20 48 81 0
-15 -20 0
-15 -48 0
-15 -81 0
-20 -48 0
-20 -81 0
-48 -81 0
83 0
21 0
16 52 82 87 0
-16 -52 0
-16 -82 0
-16 -87 0
-52 -82 0
-52 -87 0
-82 -87 0
44 0
22 27 53 93 0
-22 -27 0
-22 -53 0
-22 -93 0
-27 -53 0
-27 -93 0
-53 -93 0
23 28 54 57 89 94 0
-23 -28 0
-23 -54 0
-23 -57 0
-23 -89 0
-23 -94 0
-28 -54 0
-28 -57 0
-28 -89 0
-28 -94 0
-54 -57 0
-54 -89 0
-54 -94 0
-57 -89 0
-57 -94 0
-89 -94 0
29 58 90 95 0
-29 -58 0
-29 -90 0
-29 -95 0
-58 -90 0
-58 -95 0
-90 -95 0
30 59 91 96 0
-30 -59 0
-30 -91 0
-30 -96 0
-59 -91 0
-59 -96 0
-91 -96 0
24 31 55 60 92 97 0
-24 -31 0
-24 -55 0
-24 -60 0
-24 -92 0
-24 -97 0
-31 -55 0
-31 -60 0
-31 -92 0
-31 -97 0
-55 -60 0
-55 -92 0
-55 -97 0
-60 -92 0
-60 -97 0
-92 -97 0
26 0
61 0
25 32 56 98 0
-25 -32 0
-25 -56 0
-25 -98 0
-32 -56 0
-32 -98 0
-56 -98 0
88 0
100 104 127 132 0
-100 -104 0
-100 -127 0
-100 -132 0
-104 -127 0
-104 -132 0
-127 -132 0
99 0
101 105 0
-101 -105 0
102 128 152 155 0
-102 -128 0
-102 -152 0
-102 -155 0
-128 -152 0
-128 -155 0
-152 -155 0
106 129 133 153 0
-106 -129 0
-106 -133 0
-106 -153 0
-129 -133 0
-129 -153 0
-133 -153 0
158 0
131 0
130 134 154 156 0
-130 -134 0
-130 -154 0
-130 -156 0
-134 -154 0
-134 -156 0
-154 -156 0
103 107 135 157 0
-103 -107 0
-103 -135 0
-103 -157 0
-107 -135 0
-107 -157 0
-135 -157 0
108 113 136 139 0
-108 -113 0
-108 -136 0
-108 -139 0
-113 -136 0
-113 -139 0
-136 -139 0
143 0
159 0
109 114 137 140 160 164 0
-109 -114 0
-109 -137 0
-109 -140 0
-109 -160 0
-109 -164 0
-114 -137 0
-114 -140 0
-114 -160 0
-114 -164 0
-137 -140 0
-137 -160 0
-137 -164 0
-140 -160 0
-140 -164 0
-160 -164 0
110 138 141 161 0
-110 -138 0
-110 -141 0
-110 -161 0
-138 -141 0
-138 -161 0
-141 -161 0
115 0
111 162 0
-111 -162 0
112 0
116 142 163 165 0
-116 -142 0
-116 -163 0
-116 -165 0
-142 -163 0
-142 -165 0
-163 -165 0
170 0
166 171 0
-166 -171 0
144 0
120 124 145 148 172 0
-120 -124 0
-120 -145 0
-120 -148 0
-120 -172 0
-124 -145 0
-124 -148 0
-124 -172 0
-145 -148 0
-145 -172 0
-148 -172 0
117 121 125 146 149 167 173 0
-117 -121 0
-117 -125 0
-117 -146 0
-117 -149 0
-117 -167 0
-117 -173 0
-121 -125 0
-121 -146 0
-121 -149 0
-121 -167 0
-121 -173 0
-125 -146 0
-125 -149 0
-125 -167 0
-125 -173 0
-146 -149 0
-146 -167 0
-146 -173 0
-149 -167 0
-149 -173 0
-167 -173 0
118 126 150 0
-118 -126 0
-118 -150 0
-126 -150 0
119 122 168 0
-119 -122 0
-119 -168 0
-122 -168 0
151 169 174 0
-151 -169 0
-151 -174 0
-169 -174 0
123 147 0
-123 -147 0
175 180 198 201 223 227 0
-175 -180 0
-175 -198 0
-175 -201 0
-175 -223 0
-175 -227 0
-180 -198 0
-180 -201 0
-180 -223 0
-180 -227 0
-198 -201 0
-198 -223 0
-198 -227 0
-201 -223 0
-201 -227 0
-223 -227 0
202 224 228 0
-202 -224 0
-202 -228 0
-224 -228 0
176 181 199 203 225 229 0
-176 -181 0
-176 -199 0
-176 -203 0
-176 -225 0
-176 -229 0
-181 -199 0
-181 -203 0
-181 -225 0
-181 -229 0
-199 -203 0
-199 -225 0
-199 -229 0
-203 -225 0
-203 -229 0
-225 -229 0
205 0
179 0
177 200 0
-177 -200 0
222 0
178 182 226 230 0
-178 -182 0
-178 -226 0
-178 -230 0
-182 -226 0
-182 -230 0
-226 -230 0
183 204 0
-183 -204 0
184 188 206 208 232 235 0
-184 -188 0
-184 -206 0
-184 -208 0
-184 -232 0
-184 -235 0
-188 -206 0
-188 -208 0
-188 -232 0
-188 -235 0
-206 -208 0
-206 -232 0
-206 -235 0
-208 -232 0
-208 -235 0
-232 -235 0
187 0
189 209 233 236 0
-189 -209 0
-189 -233 0
-189 -236 0
-209 -233 0
-209 -236 0
-233 -236 0
234 237 0
-234 -237 0
212 0
231 0
185 207 210 0
-185 -207 0
-185 -210 0
-207 -210 0
186 190 238 0
-186 -190 0
-186 -238 0
-190 -238 0
191 211 0
-191 -211 0
195 213 218 239 0
-195 -213 0
-195 -218 0
-195 -239 0
-213 -218 0
-213 -239 0
-218 -239 0
214 219 240 242 0
-214 -219 0
-214 -240 0
-214 -242 0
-219 -240 0
-219 -242 0
-240 -242 0
193 196 220 243 0
-193 -196 0
-193 -220 0
-193 -243 0
-196 -220 0
-196 -243 0
-220 -243 0
192 0
241 244 0
-241 -244 0
197 215 221 0
-197 -215 0
-197 -221 0
-215 -221 0
194 216 0
-194 -216 0
217 0
245 0
